p cnf 672 2343
28 88 0
-28 -88 0
137 -114 0
-137 114 0
138 -137 -115 0
-138 137 0
-138 115 0
-116 -138 0
-114 -29 -136 0
-114 29 0
-115 -29 -136 0
-115 29 0
-116 -29 -136 0
-116 29 0
141 -28 0
-141 28 0
364 -141 0
-364 141 0
136 -141 0
-136 141 0
142 -37 -38 0
-142 37 0
-142 38 0
365 -142 0
-365 142 0
366 -114 -142 126 0
-366 114 0
-366 142 0
-366 -126 0
367 -145 -142 126 114 0
-367 145 0
-367 142 0
-367 -126 0
-367 -114 0
368 -145 -126 -114 -142 0
-368 145 0
-368 126 0
-368 114 0
-368 142 0
369 -115 -142 127 0
-369 115 0
-369 142 0
-369 -127 0
370 -146 -142 127 115 0
-370 146 0
-370 142 0
-370 -127 0
-370 -115 0
371 -146 -127 -115 -142 0
-371 146 0
-371 127 0
-371 115 0
-371 142 0
146 -116 -142 128 0
-146 116 0
-146 142 0
-146 -128 0
143 -142 -144 0
-143 142 0
-143 144 0
372 -143 136 0
-372 143 0
-372 -136 0
373 -126 -114 -142 0
-373 126 0
-373 114 0
-373 142 0
374 -142 126 114 0
-374 142 0
-374 -126 0
-374 -114 0
375 -147 -127 -115 -142 0
-375 147 0
-375 127 0
-375 115 0
-375 142 0
376 -147 -142 127 115 0
-376 147 0
-376 142 0
-376 -127 0
-376 -115 0
149 -114 -142 126 0
-149 114 0
-149 142 0
-149 -126 0
377 -147 -115 -142 127 0
-377 147 0
-377 115 0
-377 142 0
-377 -127 0
378 -149 -127 -142 115 0
-378 149 0
-378 127 0
-378 142 0
-378 -115 0
379 -148 -116 -142 128 0
-379 148 0
-379 116 0
-379 142 0
-379 -128 0
380 -150 -128 -142 116 0
-380 150 0
-380 128 0
-380 142 0
-380 -116 0
-143 151 0
381 -142 -151 0
-381 142 0
-381 151 0
152 -43 -48 0
-152 43 0
-152 48 0
382 -152 0
-382 152 0
383 -114 -152 129 0
-383 114 0
-383 152 0
-383 -129 0
384 -155 -152 129 114 0
-384 155 0
-384 152 0
-384 -129 0
-384 -114 0
385 -155 -129 -114 -152 0
-385 155 0
-385 129 0
-385 114 0
-385 152 0
386 -115 -152 130 0
-386 115 0
-386 152 0
-386 -130 0
387 -156 -152 130 115 0
-387 156 0
-387 152 0
-387 -130 0
-387 -115 0
388 -156 -130 -115 -152 0
-388 156 0
-388 130 0
-388 115 0
-388 152 0
156 -116 -152 131 0
-156 116 0
-156 152 0
-156 -131 0
153 -152 -154 0
-153 152 0
-153 154 0
389 -153 136 0
-389 153 0
-389 -136 0
390 -129 -114 -152 0
-390 129 0
-390 114 0
-390 152 0
391 -152 129 114 0
-391 152 0
-391 -129 0
-391 -114 0
392 -157 -130 -115 -152 0
-392 157 0
-392 130 0
-392 115 0
-392 152 0
393 -157 -152 130 115 0
-393 157 0
-393 152 0
-393 -130 0
-393 -115 0
159 -114 -152 129 0
-159 114 0
-159 152 0
-159 -129 0
394 -157 -115 -152 130 0
-394 157 0
-394 115 0
-394 152 0
-394 -130 0
395 -159 -130 -152 115 0
-395 159 0
-395 130 0
-395 152 0
-395 -115 0
396 -158 -116 -152 131 0
-396 158 0
-396 116 0
-396 152 0
-396 -131 0
397 -160 -131 -152 116 0
-397 160 0
-397 131 0
-397 152 0
-397 -116 0
-153 161 0
398 -152 -161 0
-398 152 0
-398 161 0
162 -35 -51 0
-162 35 0
-162 51 0
399 -162 0
-399 162 0
400 -114 -162 123 0
-400 114 0
-400 162 0
-400 -123 0
401 -165 -162 123 114 0
-401 165 0
-401 162 0
-401 -123 0
-401 -114 0
402 -165 -123 -114 -162 0
-402 165 0
-402 123 0
-402 114 0
-402 162 0
403 -115 -162 124 0
-403 115 0
-403 162 0
-403 -124 0
404 -166 -162 124 115 0
-404 166 0
-404 162 0
-404 -124 0
-404 -115 0
405 -166 -124 -115 -162 0
-405 166 0
-405 124 0
-405 115 0
-405 162 0
166 -116 -162 125 0
-166 116 0
-166 162 0
-166 -125 0
163 -162 -164 0
-163 162 0
-163 164 0
406 -163 136 0
-406 163 0
-406 -136 0
407 -123 -114 -162 0
-407 123 0
-407 114 0
-407 162 0
408 -162 123 114 0
-408 162 0
-408 -123 0
-408 -114 0
409 -167 -124 -115 -162 0
-409 167 0
-409 124 0
-409 115 0
-409 162 0
410 -167 -162 124 115 0
-410 167 0
-410 162 0
-410 -124 0
-410 -115 0
169 -114 -162 123 0
-169 114 0
-169 162 0
-169 -123 0
411 -167 -115 -162 124 0
-411 167 0
-411 115 0
-411 162 0
-411 -124 0
412 -169 -124 -162 115 0
-412 169 0
-412 124 0
-412 162 0
-412 -115 0
413 -168 -116 -162 125 0
-413 168 0
-413 116 0
-413 162 0
-413 -125 0
414 -170 -125 -162 116 0
-414 170 0
-414 125 0
-414 162 0
-414 -116 0
-163 171 0
415 -162 -171 0
-415 162 0
-415 171 0
172 -33 -55 0
-172 33 0
-172 55 0
416 -172 0
-416 172 0
417 -114 -172 120 0
-417 114 0
-417 172 0
-417 -120 0
418 -175 -172 120 114 0
-418 175 0
-418 172 0
-418 -120 0
-418 -114 0
419 -175 -120 -114 -172 0
-419 175 0
-419 120 0
-419 114 0
-419 172 0
420 -115 -172 121 0
-420 115 0
-420 172 0
-420 -121 0
421 -176 -172 121 115 0
-421 176 0
-421 172 0
-421 -121 0
-421 -115 0
422 -176 -121 -115 -172 0
-422 176 0
-422 121 0
-422 115 0
-422 172 0
176 -116 -172 122 0
-176 116 0
-176 172 0
-176 -122 0
173 -172 -174 0
-173 172 0
-173 174 0
423 -173 136 0
-423 173 0
-423 -136 0
424 -120 -114 -172 0
-424 120 0
-424 114 0
-424 172 0
425 -172 120 114 0
-425 172 0
-425 -120 0
-425 -114 0
426 -177 -121 -115 -172 0
-426 177 0
-426 121 0
-426 115 0
-426 172 0
427 -177 -172 121 115 0
-427 177 0
-427 172 0
-427 -121 0
-427 -115 0
179 -114 -172 120 0
-179 114 0
-179 172 0
-179 -120 0
428 -177 -115 -172 121 0
-428 177 0
-428 115 0
-428 172 0
-428 -121 0
429 -179 -121 -172 115 0
-429 179 0
-429 121 0
-429 172 0
-429 -115 0
430 -178 -116 -172 122 0
-430 178 0
-430 116 0
-430 172 0
-430 -122 0
431 -180 -122 -172 116 0
-431 180 0
-431 122 0
-431 172 0
-431 -116 0
-173 181 0
432 -172 -181 0
-432 172 0
-432 181 0
182 -31 -57 0
-182 31 0
-182 57 0
433 -182 0
-433 182 0
434 -114 -182 117 0
-434 114 0
-434 182 0
-434 -117 0
435 -185 -182 117 114 0
-435 185 0
-435 182 0
-435 -117 0
-435 -114 0
436 -185 -117 -114 -182 0
-436 185 0
-436 117 0
-436 114 0
-436 182 0
437 -115 -182 118 0
-437 115 0
-437 182 0
-437 -118 0
438 -186 -182 118 115 0
-438 186 0
-438 182 0
-438 -118 0
-438 -115 0
439 -186 -118 -115 -182 0
-439 186 0
-439 118 0
-439 115 0
-439 182 0
186 -116 -182 119 0
-186 116 0
-186 182 0
-186 -119 0
183 -182 -184 0
-183 182 0
-183 184 0
440 -183 136 0
-440 183 0
-440 -136 0
441 -117 -114 -182 0
-441 117 0
-441 114 0
-441 182 0
442 -182 117 114 0
-442 182 0
-442 -117 0
-442 -114 0
443 -187 -118 -115 -182 0
-443 187 0
-443 118 0
-443 115 0
-443 182 0
444 -187 -182 118 115 0
-444 187 0
-444 182 0
-444 -118 0
-444 -115 0
189 -114 -182 117 0
-189 114 0
-189 182 0
-189 -117 0
445 -187 -115 -182 118 0
-445 187 0
-445 115 0
-445 182 0
-445 -118 0
446 -189 -118 -182 115 0
-446 189 0
-446 118 0
-446 182 0
-446 -115 0
447 -188 -116 -182 119 0
-447 188 0
-447 116 0
-447 182 0
-447 -119 0
448 -190 -119 -182 116 0
-448 190 0
-448 119 0
-448 182 0
-448 -116 0
-183 191 0
449 -182 -191 0
-449 182 0
-449 191 0
-139 140 0
-29 139 136 0
30 89 0
-30 -89 0
194 -117 0
-194 117 0
195 -194 -118 0
-195 194 0
-195 118 0
-119 -195 0
-117 -31 -193 0
-117 31 0
-118 -31 -193 0
-118 31 0
-119 -31 -193 0
-119 31 0
198 -30 0
-198 30 0
450 -198 0
-450 198 0
193 -198 0
-193 198 0
199 -29 -56 0
-199 29 0
-199 56 0
451 -199 0
-451 199 0
452 -117 -199 114 0
-452 117 0
-452 199 0
-452 -114 0
453 -202 -199 114 117 0
-453 202 0
-453 199 0
-453 -114 0
-453 -117 0
454 -202 -114 -117 -199 0
-454 202 0
-454 114 0
-454 117 0
-454 199 0
455 -118 -199 115 0
-455 118 0
-455 199 0
-455 -115 0
456 -203 -199 115 118 0
-456 203 0
-456 199 0
-456 -115 0
-456 -118 0
457 -203 -115 -118 -199 0
-457 203 0
-457 115 0
-457 118 0
-457 199 0
203 -119 -199 116 0
-203 119 0
-203 199 0
-203 -116 0
200 -199 -201 0
-200 199 0
-200 201 0
196 -200 193 0
-196 200 0
-196 -193 0
458 -114 -117 -199 0
-458 114 0
-458 117 0
-458 199 0
459 -199 114 117 0
-459 199 0
-459 -114 0
-459 -117 0
460 -204 -115 -118 -199 0
-460 204 0
-460 115 0
-460 118 0
-460 199 0
461 -204 -199 115 118 0
-461 204 0
-461 199 0
-461 -115 0
-461 -118 0
206 -117 -199 114 0
-206 117 0
-206 199 0
-206 -114 0
462 -204 -118 -199 115 0
-462 204 0
-462 118 0
-462 199 0
-462 -115 0
463 -206 -115 -199 118 0
-463 206 0
-463 115 0
-463 199 0
-463 -118 0
464 -205 -119 -199 116 0
-464 205 0
-464 119 0
-464 199 0
-464 -116 0
465 -207 -116 -199 119 0
-465 207 0
-465 116 0
-465 199 0
-465 -119 0
-200 208 0
197 -199 -208 0
-197 199 0
-197 208 0
-196 197 0
-31 196 193 0
32 90 0
-32 -90 0
211 -120 0
-211 120 0
212 -211 -121 0
-212 211 0
-212 121 0
-122 -212 0
-120 -33 -210 0
-120 33 0
-121 -33 -210 0
-121 33 0
-122 -33 -210 0
-122 33 0
215 -32 0
-215 32 0
466 -215 0
-466 215 0
210 -215 0
-210 215 0
216 -29 -39 0
-216 29 0
-216 39 0
467 -216 0
-467 216 0
468 -120 -216 114 0
-468 120 0
-468 216 0
-468 -114 0
469 -219 -216 114 120 0
-469 219 0
-469 216 0
-469 -114 0
-469 -120 0
470 -219 -114 -120 -216 0
-470 219 0
-470 114 0
-470 120 0
-470 216 0
471 -121 -216 115 0
-471 121 0
-471 216 0
-471 -115 0
472 -220 -216 115 121 0
-472 220 0
-472 216 0
-472 -115 0
-472 -121 0
473 -220 -115 -121 -216 0
-473 220 0
-473 115 0
-473 121 0
-473 216 0
220 -122 -216 116 0
-220 122 0
-220 216 0
-220 -116 0
217 -216 -218 0
-217 216 0
-217 218 0
474 -217 210 0
-474 217 0
-474 -210 0
475 -114 -120 -216 0
-475 114 0
-475 120 0
-475 216 0
476 -216 114 120 0
-476 216 0
-476 -114 0
-476 -120 0
477 -221 -115 -121 -216 0
-477 221 0
-477 115 0
-477 121 0
-477 216 0
478 -221 -216 115 121 0
-478 221 0
-478 216 0
-478 -115 0
-478 -121 0
223 -120 -216 114 0
-223 120 0
-223 216 0
-223 -114 0
479 -221 -121 -216 115 0
-479 221 0
-479 121 0
-479 216 0
-479 -115 0
480 -223 -115 -216 121 0
-480 223 0
-480 115 0
-480 216 0
-480 -121 0
481 -222 -122 -216 116 0
-481 222 0
-481 122 0
-481 216 0
-481 -116 0
482 -224 -116 -216 122 0
-482 224 0
-482 116 0
-482 216 0
-482 -122 0
-217 225 0
483 -216 -225 0
-483 216 0
-483 225 0
226 -37 -54 0
-226 37 0
-226 54 0
484 -226 0
-484 226 0
485 -120 -226 126 0
-485 120 0
-485 226 0
-485 -126 0
486 -229 -226 126 120 0
-486 229 0
-486 226 0
-486 -126 0
-486 -120 0
487 -229 -126 -120 -226 0
-487 229 0
-487 126 0
-487 120 0
-487 226 0
488 -121 -226 127 0
-488 121 0
-488 226 0
-488 -127 0
489 -230 -226 127 121 0
-489 230 0
-489 226 0
-489 -127 0
-489 -121 0
490 -230 -127 -121 -226 0
-490 230 0
-490 127 0
-490 121 0
-490 226 0
230 -122 -226 128 0
-230 122 0
-230 226 0
-230 -128 0
227 -226 -228 0
-227 226 0
-227 228 0
491 -227 210 0
-491 227 0
-491 -210 0
492 -126 -120 -226 0
-492 126 0
-492 120 0
-492 226 0
493 -226 126 120 0
-493 226 0
-493 -126 0
-493 -120 0
494 -231 -127 -121 -226 0
-494 231 0
-494 127 0
-494 121 0
-494 226 0
495 -231 -226 127 121 0
-495 231 0
-495 226 0
-495 -127 0
-495 -121 0
233 -120 -226 126 0
-233 120 0
-233 226 0
-233 -126 0
496 -231 -121 -226 127 0
-496 231 0
-496 121 0
-496 226 0
-496 -127 0
497 -233 -127 -226 121 0
-497 233 0
-497 127 0
-497 226 0
-497 -121 0
498 -232 -122 -226 128 0
-498 232 0
-498 122 0
-498 226 0
-498 -128 0
499 -234 -128 -226 122 0
-499 234 0
-499 128 0
-499 226 0
-499 -122 0
-227 235 0
500 -226 -235 0
-500 226 0
-500 235 0
-213 214 0
-33 213 210 0
34 91 0
-34 -91 0
238 -123 0
-238 123 0
239 -238 -124 0
-239 238 0
-239 124 0
-125 -239 0
-123 -35 -237 0
-123 35 0
-124 -35 -237 0
-124 35 0
-125 -35 -237 0
-125 35 0
242 -34 0
-242 34 0
501 -242 0
-501 242 0
237 -242 0
-237 242 0
243 -37 -50 0
-243 37 0
-243 50 0
502 -243 0
-502 243 0
503 -123 -243 126 0
-503 123 0
-503 243 0
-503 -126 0
504 -246 -243 126 123 0
-504 246 0
-504 243 0
-504 -126 0
-504 -123 0
505 -246 -126 -123 -243 0
-505 246 0
-505 126 0
-505 123 0
-505 243 0
506 -124 -243 127 0
-506 124 0
-506 243 0
-506 -127 0
507 -247 -243 127 124 0
-507 247 0
-507 243 0
-507 -127 0
-507 -124 0
508 -247 -127 -124 -243 0
-508 247 0
-508 127 0
-508 124 0
-508 243 0
247 -125 -243 128 0
-247 125 0
-247 243 0
-247 -128 0
244 -243 -245 0
-244 243 0
-244 245 0
509 -244 237 0
-509 244 0
-509 -237 0
510 -126 -123 -243 0
-510 126 0
-510 123 0
-510 243 0
511 -243 126 123 0
-511 243 0
-511 -126 0
-511 -123 0
512 -248 -127 -124 -243 0
-512 248 0
-512 127 0
-512 124 0
-512 243 0
513 -248 -243 127 124 0
-513 248 0
-513 243 0
-513 -127 0
-513 -124 0
250 -123 -243 126 0
-250 123 0
-250 243 0
-250 -126 0
514 -248 -124 -243 127 0
-514 248 0
-514 124 0
-514 243 0
-514 -127 0
515 -250 -127 -243 124 0
-515 250 0
-515 127 0
-515 243 0
-515 -124 0
516 -249 -125 -243 128 0
-516 249 0
-516 125 0
-516 243 0
-516 -128 0
517 -251 -128 -243 125 0
-517 251 0
-517 128 0
-517 243 0
-517 -125 0
-244 252 0
518 -243 -252 0
-518 243 0
-518 252 0
253 -29 -52 0
-253 29 0
-253 52 0
519 -253 0
-519 253 0
520 -123 -253 114 0
-520 123 0
-520 253 0
-520 -114 0
521 -256 -253 114 123 0
-521 256 0
-521 253 0
-521 -114 0
-521 -123 0
522 -256 -114 -123 -253 0
-522 256 0
-522 114 0
-522 123 0
-522 253 0
523 -124 -253 115 0
-523 124 0
-523 253 0
-523 -115 0
524 -257 -253 115 124 0
-524 257 0
-524 253 0
-524 -115 0
-524 -124 0
525 -257 -115 -124 -253 0
-525 257 0
-525 115 0
-525 124 0
-525 253 0
257 -125 -253 116 0
-257 125 0
-257 253 0
-257 -116 0
254 -253 -255 0
-254 253 0
-254 255 0
526 -254 237 0
-526 254 0
-526 -237 0
527 -114 -123 -253 0
-527 114 0
-527 123 0
-527 253 0
528 -253 114 123 0
-528 253 0
-528 -114 0
-528 -123 0
529 -258 -115 -124 -253 0
-529 258 0
-529 115 0
-529 124 0
-529 253 0
530 -258 -253 115 124 0
-530 258 0
-530 253 0
-530 -115 0
-530 -124 0
260 -123 -253 114 0
-260 123 0
-260 253 0
-260 -114 0
531 -258 -124 -253 115 0
-531 258 0
-531 124 0
-531 253 0
-531 -115 0
532 -260 -115 -253 124 0
-532 260 0
-532 115 0
-532 253 0
-532 -124 0
533 -259 -125 -253 116 0
-533 259 0
-533 125 0
-533 253 0
-533 -116 0
534 -261 -116 -253 125 0
-534 261 0
-534 116 0
-534 253 0
-534 -125 0
-254 262 0
535 -253 -262 0
-535 253 0
-535 262 0
-240 241 0
-35 240 237 0
36 92 0
-36 -92 0
265 -126 0
-265 126 0
266 -265 -127 0
-266 265 0
-266 127 0
-128 -266 0
-126 -37 -264 0
-126 37 0
-127 -37 -264 0
-127 37 0
-128 -37 -264 0
-128 37 0
269 -36 0
-269 36 0
536 -269 0
-536 269 0
264 -269 0
-264 269 0
270 -33 -40 0
-270 33 0
-270 40 0
537 -270 0
-537 270 0
538 -126 -270 120 0
-538 126 0
-538 270 0
-538 -120 0
539 -273 -270 120 126 0
-539 273 0
-539 270 0
-539 -120 0
-539 -126 0
540 -273 -120 -126 -270 0
-540 273 0
-540 120 0
-540 126 0
-540 270 0
541 -127 -270 121 0
-541 127 0
-541 270 0
-541 -121 0
542 -274 -270 121 127 0
-542 274 0
-542 270 0
-542 -121 0
-542 -127 0
543 -274 -121 -127 -270 0
-543 274 0
-543 121 0
-543 127 0
-543 270 0
274 -128 -270 122 0
-274 128 0
-274 270 0
-274 -122 0
271 -270 -272 0
-271 270 0
-271 272 0
544 -271 264 0
-544 271 0
-544 -264 0
545 -120 -126 -270 0
-545 120 0
-545 126 0
-545 270 0
546 -270 120 126 0
-546 270 0
-546 -120 0
-546 -126 0
547 -275 -121 -127 -270 0
-547 275 0
-547 121 0
-547 127 0
-547 270 0
548 -275 -270 121 127 0
-548 275 0
-548 270 0
-548 -121 0
-548 -127 0
277 -126 -270 120 0
-277 126 0
-277 270 0
-277 -120 0
549 -275 -127 -270 121 0
-549 275 0
-549 127 0
-549 270 0
-549 -121 0
550 -277 -121 -270 127 0
-550 277 0
-550 121 0
-550 270 0
-550 -127 0
551 -276 -128 -270 122 0
-551 276 0
-551 128 0
-551 270 0
-551 -122 0
552 -278 -122 -270 128 0
-552 278 0
-552 122 0
-552 270 0
-552 -128 0
-271 279 0
553 -270 -279 0
-553 270 0
-553 279 0
280 -29 -49 0
-280 29 0
-280 49 0
554 -280 0
-554 280 0
555 -126 -280 114 0
-555 126 0
-555 280 0
-555 -114 0
556 -283 -280 114 126 0
-556 283 0
-556 280 0
-556 -114 0
-556 -126 0
557 -283 -114 -126 -280 0
-557 283 0
-557 114 0
-557 126 0
-557 280 0
558 -127 -280 115 0
-558 127 0
-558 280 0
-558 -115 0
559 -284 -280 115 127 0
-559 284 0
-559 280 0
-559 -115 0
-559 -127 0
560 -284 -115 -127 -280 0
-560 284 0
-560 115 0
-560 127 0
-560 280 0
284 -128 -280 116 0
-284 128 0
-284 280 0
-284 -116 0
281 -280 -282 0
-281 280 0
-281 282 0
561 -281 264 0
-561 281 0
-561 -264 0
562 -114 -126 -280 0
-562 114 0
-562 126 0
-562 280 0
563 -280 114 126 0
-563 280 0
-563 -114 0
-563 -126 0
564 -285 -115 -127 -280 0
-564 285 0
-564 115 0
-564 127 0
-564 280 0
565 -285 -280 115 127 0
-565 285 0
-565 280 0
-565 -115 0
-565 -127 0
287 -126 -280 114 0
-287 126 0
-287 280 0
-287 -114 0
566 -285 -127 -280 115 0
-566 285 0
-566 127 0
-566 280 0
-566 -115 0
567 -287 -115 -280 127 0
-567 287 0
-567 115 0
-567 280 0
-567 -127 0
568 -286 -128 -280 116 0
-568 286 0
-568 128 0
-568 280 0
-568 -116 0
569 -288 -116 -280 128 0
-569 288 0
-569 116 0
-569 280 0
-569 -128 0
-281 289 0
570 -280 -289 0
-570 280 0
-570 289 0
290 -35 -53 0
-290 35 0
-290 53 0
571 -290 0
-571 290 0
572 -126 -290 123 0
-572 126 0
-572 290 0
-572 -123 0
573 -293 -290 123 126 0
-573 293 0
-573 290 0
-573 -123 0
-573 -126 0
574 -293 -123 -126 -290 0
-574 293 0
-574 123 0
-574 126 0
-574 290 0
575 -127 -290 124 0
-575 127 0
-575 290 0
-575 -124 0
576 -294 -290 124 127 0
-576 294 0
-576 290 0
-576 -124 0
-576 -127 0
577 -294 -124 -127 -290 0
-577 294 0
-577 124 0
-577 127 0
-577 290 0
294 -128 -290 125 0
-294 128 0
-294 290 0
-294 -125 0
291 -290 -292 0
-291 290 0
-291 292 0
578 -291 264 0
-578 291 0
-578 -264 0
579 -123 -126 -290 0
-579 123 0
-579 126 0
-579 290 0
580 -290 123 126 0
-580 290 0
-580 -123 0
-580 -126 0
581 -295 -124 -127 -290 0
-581 295 0
-581 124 0
-581 127 0
-581 290 0
582 -295 -290 124 127 0
-582 295 0
-582 290 0
-582 -124 0
-582 -127 0
297 -126 -290 123 0
-297 126 0
-297 290 0
-297 -123 0
583 -295 -127 -290 124 0
-583 295 0
-583 127 0
-583 290 0
-583 -124 0
584 -297 -124 -290 127 0
-584 297 0
-584 124 0
-584 290 0
-584 -127 0
585 -296 -128 -290 125 0
-585 296 0
-585 128 0
-585 290 0
-585 -125 0
586 -298 -125 -290 128 0
-586 298 0
-586 125 0
-586 290 0
-586 -128 0
-291 299 0
587 -290 -299 0
-587 290 0
-587 299 0
300 -43 -59 0
-300 43 0
-300 59 0
588 -300 0
-588 300 0
589 -126 -300 129 0
-589 126 0
-589 300 0
-589 -129 0
590 -303 -300 129 126 0
-590 303 0
-590 300 0
-590 -129 0
-590 -126 0
591 -303 -129 -126 -300 0
-591 303 0
-591 129 0
-591 126 0
-591 300 0
592 -127 -300 130 0
-592 127 0
-592 300 0
-592 -130 0
593 -304 -300 130 127 0
-593 304 0
-593 300 0
-593 -130 0
-593 -127 0
594 -304 -130 -127 -300 0
-594 304 0
-594 130 0
-594 127 0
-594 300 0
304 -128 -300 131 0
-304 128 0
-304 300 0
-304 -131 0
301 -300 -302 0
-301 300 0
-301 302 0
595 -301 264 0
-595 301 0
-595 -264 0
596 -129 -126 -300 0
-596 129 0
-596 126 0
-596 300 0
597 -300 129 126 0
-597 300 0
-597 -129 0
-597 -126 0
598 -305 -130 -127 -300 0
-598 305 0
-598 130 0
-598 127 0
-598 300 0
599 -305 -300 130 127 0
-599 305 0
-599 300 0
-599 -130 0
-599 -127 0
307 -126 -300 129 0
-307 126 0
-307 300 0
-307 -129 0
600 -305 -127 -300 130 0
-600 305 0
-600 127 0
-600 300 0
-600 -130 0
601 -307 -130 -300 127 0
-601 307 0
-601 130 0
-601 300 0
-601 -127 0
602 -306 -128 -300 131 0
-602 306 0
-602 128 0
-602 300 0
-602 -131 0
603 -308 -131 -300 128 0
-603 308 0
-603 131 0
-603 300 0
-603 -128 0
-301 309 0
604 -300 -309 0
-604 300 0
-604 309 0
-267 268 0
-37 267 264 0
38 93 0
-38 -93 0
39 94 0
-39 -94 0
40 95 0
-40 -95 0
41 96 0
-41 -96 0
42 97 0
-42 -97 0
312 -129 0
-312 129 0
313 -312 -130 0
-313 312 0
-313 130 0
-131 -313 0
-129 -43 -311 0
-129 43 0
-130 -43 -311 0
-130 43 0
-131 -43 -311 0
-131 43 0
316 -42 0
-316 42 0
605 -316 0
-605 316 0
311 -316 0
-311 316 0
317 -45 -47 0
-317 45 0
-317 47 0
606 -317 0
-606 317 0
607 -129 -317 132 0
-607 129 0
-607 317 0
-607 -132 0
608 -320 -317 132 129 0
-608 320 0
-608 317 0
-608 -132 0
-608 -129 0
609 -320 -132 -129 -317 0
-609 320 0
-609 132 0
-609 129 0
-609 317 0
610 -130 -317 133 0
-610 130 0
-610 317 0
-610 -133 0
611 -321 -317 133 130 0
-611 321 0
-611 317 0
-611 -133 0
-611 -130 0
612 -321 -133 -130 -317 0
-612 321 0
-612 133 0
-612 130 0
-612 317 0
321 -131 -317 134 0
-321 131 0
-321 317 0
-321 -134 0
318 -317 -319 0
-318 317 0
-318 319 0
613 -318 311 0
-613 318 0
-613 -311 0
614 -132 -129 -317 0
-614 132 0
-614 129 0
-614 317 0
615 -317 132 129 0
-615 317 0
-615 -132 0
-615 -129 0
616 -322 -133 -130 -317 0
-616 322 0
-616 133 0
-616 130 0
-616 317 0
617 -322 -317 133 130 0
-617 322 0
-617 317 0
-617 -133 0
-617 -130 0
324 -129 -317 132 0
-324 129 0
-324 317 0
-324 -132 0
618 -322 -130 -317 133 0
-618 322 0
-618 130 0
-618 317 0
-618 -133 0
619 -324 -133 -317 130 0
-619 324 0
-619 133 0
-619 317 0
-619 -130 0
620 -323 -131 -317 134 0
-620 323 0
-620 131 0
-620 317 0
-620 -134 0
621 -325 -134 -317 131 0
-621 325 0
-621 134 0
-621 317 0
-621 -131 0
-318 326 0
622 -317 -326 0
-622 317 0
-622 326 0
327 -37 -41 0
-327 37 0
-327 41 0
623 -327 0
-623 327 0
624 -129 -327 126 0
-624 129 0
-624 327 0
-624 -126 0
625 -330 -327 126 129 0
-625 330 0
-625 327 0
-625 -126 0
-625 -129 0
626 -330 -126 -129 -327 0
-626 330 0
-626 126 0
-626 129 0
-626 327 0
627 -130 -327 127 0
-627 130 0
-627 327 0
-627 -127 0
628 -331 -327 127 130 0
-628 331 0
-628 327 0
-628 -127 0
-628 -130 0
629 -331 -127 -130 -327 0
-629 331 0
-629 127 0
-629 130 0
-629 327 0
331 -131 -327 128 0
-331 131 0
-331 327 0
-331 -128 0
328 -327 -329 0
-328 327 0
-328 329 0
630 -328 311 0
-630 328 0
-630 -311 0
631 -126 -129 -327 0
-631 126 0
-631 129 0
-631 327 0
632 -327 126 129 0
-632 327 0
-632 -126 0
-632 -129 0
633 -332 -127 -130 -327 0
-633 332 0
-633 127 0
-633 130 0
-633 327 0
634 -332 -327 127 130 0
-634 332 0
-634 327 0
-634 -127 0
-634 -130 0
334 -129 -327 126 0
-334 129 0
-334 327 0
-334 -126 0
635 -332 -130 -327 127 0
-635 332 0
-635 130 0
-635 327 0
-635 -127 0
636 -334 -127 -327 130 0
-636 334 0
-636 127 0
-636 327 0
-636 -130 0
637 -333 -131 -327 128 0
-637 333 0
-637 131 0
-637 327 0
-637 -128 0
638 -335 -128 -327 131 0
-638 335 0
-638 128 0
-638 327 0
-638 -131 0
-328 336 0
639 -327 -336 0
-639 327 0
-639 336 0
337 -29 -58 0
-337 29 0
-337 58 0
640 -337 0
-640 337 0
641 -129 -337 114 0
-641 129 0
-641 337 0
-641 -114 0
642 -340 -337 114 129 0
-642 340 0
-642 337 0
-642 -114 0
-642 -129 0
643 -340 -114 -129 -337 0
-643 340 0
-643 114 0
-643 129 0
-643 337 0
644 -130 -337 115 0
-644 130 0
-644 337 0
-644 -115 0
645 -341 -337 115 130 0
-645 341 0
-645 337 0
-645 -115 0
-645 -130 0
646 -341 -115 -130 -337 0
-646 341 0
-646 115 0
-646 130 0
-646 337 0
341 -131 -337 116 0
-341 131 0
-341 337 0
-341 -116 0
338 -337 -339 0
-338 337 0
-338 339 0
647 -338 311 0
-647 338 0
-647 -311 0
648 -114 -129 -337 0
-648 114 0
-648 129 0
-648 337 0
649 -337 114 129 0
-649 337 0
-649 -114 0
-649 -129 0
650 -342 -115 -130 -337 0
-650 342 0
-650 115 0
-650 130 0
-650 337 0
651 -342 -337 115 130 0
-651 342 0
-651 337 0
-651 -115 0
-651 -130 0
344 -129 -337 114 0
-344 129 0
-344 337 0
-344 -114 0
652 -342 -130 -337 115 0
-652 342 0
-652 130 0
-652 337 0
-652 -115 0
653 -344 -115 -337 130 0
-653 344 0
-653 115 0
-653 337 0
-653 -130 0
654 -343 -131 -337 116 0
-654 343 0
-654 131 0
-654 337 0
-654 -116 0
655 -345 -116 -337 131 0
-655 345 0
-655 116 0
-655 337 0
-655 -131 0
-338 346 0
656 -337 -346 0
-656 337 0
-656 346 0
-314 315 0
-43 314 311 0
44 98 0
-44 -98 0
349 -132 0
-349 132 0
350 -349 -133 0
-350 349 0
-350 133 0
-134 -350 0
-132 -45 -348 0
-132 45 0
-133 -45 -348 0
-133 45 0
-134 -45 -348 0
-134 45 0
353 -44 0
-353 44 0
657 -353 0
-657 353 0
348 -353 0
-348 353 0
354 -43 -46 0
-354 43 0
-354 46 0
658 -354 0
-658 354 0
659 -132 -354 129 0
-659 132 0
-659 354 0
-659 -129 0
660 -357 -354 129 132 0
-660 357 0
-660 354 0
-660 -129 0
-660 -132 0
661 -357 -129 -132 -354 0
-661 357 0
-661 129 0
-661 132 0
-661 354 0
662 -133 -354 130 0
-662 133 0
-662 354 0
-662 -130 0
663 -358 -354 130 133 0
-663 358 0
-663 354 0
-663 -130 0
-663 -133 0
664 -358 -130 -133 -354 0
-664 358 0
-664 130 0
-664 133 0
-664 354 0
358 -134 -354 131 0
-358 134 0
-358 354 0
-358 -131 0
355 -354 -356 0
-355 354 0
-355 356 0
351 -355 348 0
-351 355 0
-351 -348 0
665 -129 -132 -354 0
-665 129 0
-665 132 0
-665 354 0
666 -354 129 132 0
-666 354 0
-666 -129 0
-666 -132 0
667 -359 -130 -133 -354 0
-667 359 0
-667 130 0
-667 133 0
-667 354 0
668 -359 -354 130 133 0
-668 359 0
-668 354 0
-668 -130 0
-668 -133 0
361 -132 -354 129 0
-361 132 0
-361 354 0
-361 -129 0
669 -359 -133 -354 130 0
-669 359 0
-669 133 0
-669 354 0
-669 -130 0
670 -361 -130 -354 133 0
-670 361 0
-670 130 0
-670 354 0
-670 -133 0
671 -360 -134 -354 131 0
-671 360 0
-671 134 0
-671 354 0
-671 -131 0
672 -362 -131 -354 134 0
-672 362 0
-672 131 0
-672 354 0
-672 -134 0
-355 363 0
352 -354 -363 0
-352 354 0
-352 363 0
-351 352 0
-45 351 348 0
46 99 0
-46 -99 0
47 100 0
-47 -100 0
48 101 0
-48 -101 0
49 102 0
-49 -102 0
50 103 0
-50 -103 0
51 104 0
-51 -104 0
52 105 0
-52 -105 0
53 106 0
-53 -106 0
54 107 0
-54 -107 0
55 108 0
-55 -108 0
56 109 0
-56 -109 0
57 110 0
-57 -110 0
58 111 0
-58 -111 0
59 112 0
-59 -112 0
60 113 0
-60 -113 0
61 -60 0
-61 60 0
62 0
63 0
64 0
65 0
66 0
67 0
68 0
69 0
70 0
71 0
72 0
73 0
74 0
75 0
76 0
77 0
78 0
79 0
80 0
81 0
82 0
83 0
84 0
85 0
86 0
87 0
88 28 0
-88 -28 0
89 30 0
-89 -30 0
90 32 0
-90 -32 0
91 34 0
-91 -34 0
92 36 0
-92 -36 0
93 38 0
-93 -38 0
94 39 0
-94 -39 0
95 40 0
-95 -40 0
96 41 0
-96 -41 0
97 42 0
-97 -42 0
98 44 0
-98 -44 0
99 46 0
-99 -46 0
100 47 0
-100 -47 0
101 48 0
-101 -48 0
102 49 0
-102 -49 0
103 50 0
-103 -50 0
104 51 0
-104 -51 0
105 52 0
-105 -52 0
106 53 0
-106 -53 0
107 54 0
-107 -54 0
108 55 0
-108 -55 0
109 56 0
-109 -56 0
110 57 0
-110 -57 0
111 58 0
-111 -58 0
112 59 0
-112 -59 0
113 60 0
-113 -60 0
-1 0
-1 0
-2 0
-3 0
-4 0
-5 0
-6 0
-7 0
-8 0
-9 0
-10 0
-11 0
-12 0
-13 0
-14 0
-15 0
-16 0
-17 0
-18 0
-19 0
-20 0
-21 0
-22 0
-23 0
-24 0
-25 0
-26 0
-27 0
-29 364 365 382 399 416 433 0
29 -364 0
29 -365 0
29 -382 0
29 -399 0
29 -416 0
29 -433 0
-31 450 451 0
31 -450 0
31 -451 0
-33 466 467 484 0
33 -466 0
33 -467 0
33 -484 0
-35 501 502 519 0
35 -501 0
35 -502 0
35 -519 0
-37 536 537 554 571 588 0
37 -536 0
37 -537 0
37 -554 0
37 -571 0
37 -588 0
-43 605 606 623 640 0
43 -605 0
43 -606 0
43 -623 0
43 -640 0
-45 657 658 0
45 -657 0
45 -658 0
-135 0
-139 372 389 406 423 440 0
139 -372 0
139 -389 0
139 -406 0
139 -423 0
139 -440 0
-140 381 398 415 432 449 0
140 -381 0
140 -398 0
140 -415 0
140 -432 0
140 -449 0
-144 366 367 368 0
144 -366 0
144 -367 0
144 -368 0
-145 369 370 371 0
145 -369 0
145 -370 0
145 -371 0
-147 373 374 0
147 -373 0
147 -374 0
-148 375 376 0
148 -375 0
148 -376 0
-150 377 378 0
150 -377 0
150 -378 0
-151 379 380 0
151 -379 0
151 -380 0
-154 383 384 385 0
154 -383 0
154 -384 0
154 -385 0
-155 386 387 388 0
155 -386 0
155 -387 0
155 -388 0
-157 390 391 0
157 -390 0
157 -391 0
-158 392 393 0
158 -392 0
158 -393 0
-160 394 395 0
160 -394 0
160 -395 0
-161 396 397 0
161 -396 0
161 -397 0
-164 400 401 402 0
164 -400 0
164 -401 0
164 -402 0
-165 403 404 405 0
165 -403 0
165 -404 0
165 -405 0
-167 407 408 0
167 -407 0
167 -408 0
-168 409 410 0
168 -409 0
168 -410 0
-170 411 412 0
170 -411 0
170 -412 0
-171 413 414 0
171 -413 0
171 -414 0
-174 417 418 419 0
174 -417 0
174 -418 0
174 -419 0
-175 420 421 422 0
175 -420 0
175 -421 0
175 -422 0
-177 424 425 0
177 -424 0
177 -425 0
-178 426 427 0
178 -426 0
178 -427 0
-180 428 429 0
180 -428 0
180 -429 0
-181 430 431 0
181 -430 0
181 -431 0
-184 434 435 436 0
184 -434 0
184 -435 0
184 -436 0
-185 437 438 439 0
185 -437 0
185 -438 0
185 -439 0
-187 441 442 0
187 -441 0
187 -442 0
-188 443 444 0
188 -443 0
188 -444 0
-190 445 446 0
190 -445 0
190 -446 0
-191 447 448 0
191 -447 0
191 -448 0
-192 0
-201 452 453 454 0
201 -452 0
201 -453 0
201 -454 0
-202 455 456 457 0
202 -455 0
202 -456 0
202 -457 0
-204 458 459 0
204 -458 0
204 -459 0
-205 460 461 0
205 -460 0
205 -461 0
-207 462 463 0
207 -462 0
207 -463 0
-208 464 465 0
208 -464 0
208 -465 0
-209 0
-213 474 491 0
213 -474 0
213 -491 0
-214 483 500 0
214 -483 0
214 -500 0
-218 468 469 470 0
218 -468 0
218 -469 0
218 -470 0
-219 471 472 473 0
219 -471 0
219 -472 0
219 -473 0
-221 475 476 0
221 -475 0
221 -476 0
-222 477 478 0
222 -477 0
222 -478 0
-224 479 480 0
224 -479 0
224 -480 0
-225 481 482 0
225 -481 0
225 -482 0
-228 485 486 487 0
228 -485 0
228 -486 0
228 -487 0
-229 488 489 490 0
229 -488 0
229 -489 0
229 -490 0
-231 492 493 0
231 -492 0
231 -493 0
-232 494 495 0
232 -494 0
232 -495 0
-234 496 497 0
234 -496 0
234 -497 0
-235 498 499 0
235 -498 0
235 -499 0
-236 0
-240 509 526 0
240 -509 0
240 -526 0
-241 518 535 0
241 -518 0
241 -535 0
-245 503 504 505 0
245 -503 0
245 -504 0
245 -505 0
-246 506 507 508 0
246 -506 0
246 -507 0
246 -508 0
-248 510 511 0
248 -510 0
248 -511 0
-249 512 513 0
249 -512 0
249 -513 0
-251 514 515 0
251 -514 0
251 -515 0
-252 516 517 0
252 -516 0
252 -517 0
-255 520 521 522 0
255 -520 0
255 -521 0
255 -522 0
-256 523 524 525 0
256 -523 0
256 -524 0
256 -525 0
-258 527 528 0
258 -527 0
258 -528 0
-259 529 530 0
259 -529 0
259 -530 0
-261 531 532 0
261 -531 0
261 -532 0
-262 533 534 0
262 -533 0
262 -534 0
-263 0
-267 544 561 578 595 0
267 -544 0
267 -561 0
267 -578 0
267 -595 0
-268 553 570 587 604 0
268 -553 0
268 -570 0
268 -587 0
268 -604 0
-272 538 539 540 0
272 -538 0
272 -539 0
272 -540 0
-273 541 542 543 0
273 -541 0
273 -542 0
273 -543 0
-275 545 546 0
275 -545 0
275 -546 0
-276 547 548 0
276 -547 0
276 -548 0
-278 549 550 0
278 -549 0
278 -550 0
-279 551 552 0
279 -551 0
279 -552 0
-282 555 556 557 0
282 -555 0
282 -556 0
282 -557 0
-283 558 559 560 0
283 -558 0
283 -559 0
283 -560 0
-285 562 563 0
285 -562 0
285 -563 0
-286 564 565 0
286 -564 0
286 -565 0
-288 566 567 0
288 -566 0
288 -567 0
-289 568 569 0
289 -568 0
289 -569 0
-292 572 573 574 0
292 -572 0
292 -573 0
292 -574 0
-293 575 576 577 0
293 -575 0
293 -576 0
293 -577 0
-295 579 580 0
295 -579 0
295 -580 0
-296 581 582 0
296 -581 0
296 -582 0
-298 583 584 0
298 -583 0
298 -584 0
-299 585 586 0
299 -585 0
299 -586 0
-302 589 590 591 0
302 -589 0
302 -590 0
302 -591 0
-303 592 593 594 0
303 -592 0
303 -593 0
303 -594 0
-305 596 597 0
305 -596 0
305 -597 0
-306 598 599 0
306 -598 0
306 -599 0
-308 600 601 0
308 -600 0
308 -601 0
-309 602 603 0
309 -602 0
309 -603 0
-310 0
-314 613 630 647 0
314 -613 0
314 -630 0
314 -647 0
-315 622 639 656 0
315 -622 0
315 -639 0
315 -656 0
-319 607 608 609 0
319 -607 0
319 -608 0
319 -609 0
-320 610 611 612 0
320 -610 0
320 -611 0
320 -612 0
-322 614 615 0
322 -614 0
322 -615 0
-323 616 617 0
323 -616 0
323 -617 0
-325 618 619 0
325 -618 0
325 -619 0
-326 620 621 0
326 -620 0
326 -621 0
-329 624 625 626 0
329 -624 0
329 -625 0
329 -626 0
-330 627 628 629 0
330 -627 0
330 -628 0
330 -629 0
-332 631 632 0
332 -631 0
332 -632 0
-333 633 634 0
333 -633 0
333 -634 0
-335 635 636 0
335 -635 0
335 -636 0
-336 637 638 0
336 -637 0
336 -638 0
-339 641 642 643 0
339 -641 0
339 -642 0
339 -643 0
-340 644 645 646 0
340 -644 0
340 -645 0
340 -646 0
-342 648 649 0
342 -648 0
342 -649 0
-343 650 651 0
343 -650 0
343 -651 0
-345 652 653 0
345 -652 0
345 -653 0
-346 654 655 0
346 -654 0
346 -655 0
-347 0
-356 659 660 661 0
356 -659 0
356 -660 0
356 -661 0
-357 662 663 664 0
357 -662 0
357 -663 0
357 -664 0
-359 665 666 0
359 -665 0
359 -666 0
-360 667 668 0
360 -667 0
360 -668 0
-362 669 670 0
362 -669 0
362 -670 0
-363 671 672 0
363 -671 0
363 -672 0
c p auxilliary 1 2 3 4 5 6 7 8 9 10 11 12 13 14 15 16 17 18 19 20 21 22 23 24 25 26 27 88 89 90 91 92 93 94 95 96 97 98 99 100 101 102 103 104 105 106 107 108 109 110 111 112 113 114 115 116 117 118 119 120 121 122 123 124 125 126 127 128 129 130 131 132 133 134 135 136 137 138 139 140 141 142 143 144 145 146 147 148 149 150 151 152 153 154 155 156 157 158 159 160 161 162 163 164 165 166 167 168 169 170 171 172 173 174 175 176 177 178 179 180 181 182 183 184 185 186 187 188 189 190 191 192 193 194 195 196 197 198 199 200 201 202 203 204 205 206 207 208 209 210 211 212 213 214 215 216 217 218 219 220 221 222 223 224 225 226 227 228 229 230 231 232 233 234 235 236 237 238 239 240 241 242 243 244 245 246 247 248 249 250 251 252 253 254 255 256 257 258 259 260 261 262 263 264 265 266 267 268 269 270 271 272 273 274 275 276 277 278 279 280 281 282 283 284 285 286 287 288 289 290 291 292 293 294 295 296 297 298 299 300 301 302 303 304 305 306 307 308 309 310 311 312 313 314 315 316 317 318 319 320 321 322 323 324 325 326 327 328 329 330 331 332 333 334 335 336 337 338 339 340 341 342 343 344 345 346 347 348 349 350 351 352 353 354 355 356 357 358 359 360 361 362 363 364 365 366 367 368 369 370 371 372 373 374 375 376 377 378 379 380 381 382 383 384 385 386 387 388 389 390 391 392 393 394 395 396 397 398 399 400 401 402 403 404 405 406 407 408 409 410 411 412 413 414 415 416 417 418 419 420 421 422 423 424 425 426 427 428 429 430 431 432 433 434 435 436 437 438 439 440 441 442 443 444 445 446 447 448 449 450 451 452 453 454 455 456 457 458 459 460 461 462 463 464 465 466 467 468 469 470 471 472 473 474 475 476 477 478 479 480 481 482 483 484 485 486 487 488 489 490 491 492 493 494 495 496 497 498 499 500 501 502 503 504 505 506 507 508 509 510 511 512 513 514 515 516 517 518 519 520 521 522 523 524 525 526 527 528 529 530 531 532 533 534 535 536 537 538 539 540 541 542 543 544 545 546 547 548 549 550 551 552 553 554 555 556 557 558 559 560 561 562 563 564 565 566 567 568 569 570 571 572 573 574 575 576 577 578 579 580 581 582 583 584 585 586 587 588 589 590 591 592 593 594 595 596 597 598 599 600 601 602 603 604 605 606 607 608 609 610 611 612 613 614 615 616 617 618 619 620 621 622 623 624 625 626 627 628 629 630 631 632 633 634 635 636 637 638 639 640 641 642 643 644 645 646 647 648 649 650 651 652 653 654 655 656 657 658 659 660 661 662 663 664 665 666 667 668 669 670 671 672 0
